! Automatic SCF input made with thoth.phonopy v5.3.1

&CONTROL
  calculation = 'scf'
  prefix = 'MAPbI3'
  outdir = './tmp/'
  pseudo_dir = './pseudodojo-pbesol-paw-stringent/'
  restart_mode = 'from_scratch'
  max_seconds = 21000
  etot_conv_thr = 3.5279349288639156d-12
  forc_conv_thr = 3.889380759660317d-07
  tprnfor = .true.
  tstress = .true.
  nstep = 999
/

&SYSTEM
  celldm(1) = 24.43623749
  ecutwfc = 66.14877991619842
  !ecutrho = ! 4 * ecutwfc
  ibrav = 0
  nat = 48
  ntyp = 5
  input_dft = 'PBEsol'
  vdw_corr = 'DFT-D3'
  dftd3_version = 4
  dftd3_threebody = .true.
  occupations = 'fixed'
/

&ELECTRONS
  adaptive_thr = .true.
  conv_thr = 3.5279349288639156d-12
  diagonalization = 'ppcg'
  mixing_beta = 0.3
  !diago_thr_init = 1.0d-7
  electron_maxstep = 999
/

&IONS
  ion_dynamics = 'bfgs'
  trust_radius_min = 1.8897261259077822d-06
  upscale = 10000
/

&CELL
  cell_dynamics = 'bfgs'
!  cell_dofree = 'volume'
  press = 0.0001
  press_conv_thr = 0.0001
/

K_POINTS (automatic)
  2 2 2 1 1 1

CELL_PARAMETERS alat
0.490462405  -0.466047717   0.000000000
0.490462405   0.466047717   0.000000000
0.000000000   0.000000000   0.935920726
ATOMIC_SPECIES
I  126.90400   I.upf
H    1.00750   H.upf
N   14.00650   N.upf
Pb  207.20000  Pb.upf
C   12.01060   C.upf
ATOMIC_POSITIONS {crystal}
Pb               0.0000000000        0.0000000000        0.0000000000
Pb              -0.0000000000       -0.0000000000        0.5000000000
Pb               0.5000000000        0.5000000000        0.0000000000
Pb               0.5000000000        0.5000000000        0.5000000000
I                0.2504501388        0.2504501388       -0.0000000000
I                0.2504501388        0.2504501388        0.5000000000
I                0.7495498612        0.7495498612        0.5000000000
I                0.7495498612        0.7495498612        0.0000000000
I                0.0545342515        0.9454657485        0.7500000000
I                0.9454657485        0.0545342515        0.2500000000
I                0.4316214694        0.5683785306        0.7500000000
I                0.5683785306        0.4316214694        0.2500000000
I                0.7503142578        0.2496857422        0.9258552094
I                0.7503142578        0.2496857422        0.5741447906
I                0.2496857422        0.7503142578        0.4258552094
I                0.2496857422        0.7503142578        0.0741447906
N                0.3677250572        0.0526096189        0.2500000000
N                0.0526096189        0.3677250572        0.7500000000
N                0.6322749428        0.9473903811        0.7500000000
N                0.9473903811        0.6322749428        0.2500000000
C                0.5289904187        0.9943657446        0.2500000000
C                0.9943657446        0.5289904187        0.7500000000
C                0.4710095813        0.0056342554        0.7500000000
C                0.0056342554        0.4710095813        0.2500000000
H                0.6585708408        0.8807333382        0.8197201086
H                0.6585708408        0.8807333382        0.6802798914
H                0.8807333382        0.6585708408        0.3197201086
H                0.8807333382        0.6585708408        0.1802798914
H                0.3414291592        0.1192666618        0.3197201086
H                0.1192666618        0.3414291592        0.6802798914
H                0.3414291592        0.1192666618        0.1802798914
H                0.1192666618        0.3414291592        0.8197201086
H                0.5501241836        0.9243186886        0.3243519187
H                0.5501241836        0.9243186886        0.1756480813
H                0.9243186886        0.5501241836        0.8243519187
H                0.9243186886        0.5501241836        0.6756480813
H                0.4498758164        0.0756813114        0.8243519187
H                0.0756813114        0.4498758164        0.1756480813
H                0.4498758164        0.0756813114        0.6756480813
H                0.0756813114        0.4498758164        0.3243519187
H                0.6029202072        0.0920402817        0.2500000000
H                0.0920402817        0.6029202072        0.7500000000
H                0.3970797928        0.9079597183        0.7500000000
H                0.9079597183        0.3970797928        0.2500000000
H                0.0374028677        0.7057687890        0.2500000000
H                0.7057687890        0.0374028677        0.7500000000
H                0.9625971323        0.2942312110        0.7500000000
H                0.2942312110        0.9625971323        0.2500000000
