! Automatic SCF input made with thoth.phonopy v5.3.1

&CONTROL
  calculation = 'scf'
  prefix = 'MAPbI3'
  outdir = './tmp/'
  pseudo_dir = './pseudodojo-pbesol-paw-stringent/'
  restart_mode = 'from_scratch'
  max_seconds = 21000
  etot_conv_thr = 3.5279349288639156d-12
  forc_conv_thr = 3.889380759660317d-07
  tprnfor = .true.
  tstress = .true.
  nstep = 999
/

&SYSTEM
  ecutwfc = 66.14877991619842
  !ecutrho = ! 4 * ecutwfc
  ibrav = 0
  nat = 384.0
  ntyp = 5
  input_dft = 'PBEsol'
  vdw_corr = 'DFT-D3'
  dftd3_version = 4
  dftd3_threebody = .true.
  occupations = 'fixed'
/

&ELECTRONS
  adaptive_thr = .true.
  conv_thr = 3.5279349288639156d-12
  diagonalization = 'ppcg'
  mixing_beta = 0.3
  !diago_thr_init = 1.0d-7
  electron_maxstep = 999
/

&IONS
  ion_dynamics = 'bfgs'
  trust_radius_min = 1.8897261259077822d-06
  upscale = 10000
/

&CELL
  cell_dynamics = 'bfgs'
!  cell_dofree = 'volume'
  press = 0.0001
  press_conv_thr = 0.0001
/

K_POINTS (automatic)
  2 2 2 1 1 1

!    ibrav = 0, nat = 384, ntyp = 5
CELL_PARAMETERS bohr
   23.9701116169931261  -22.7769053885686183    0.0000000000000000
   23.9701116169931261   22.7769053885686183    0.0000000000000000
    0.0000000000000000    0.0000000000000000   45.7407622646984322
ATOMIC_SPECIES
 Pb  207.20000   Pb.upf
  I  126.90447   I.upf
  N   14.00670   N.upf
  C   12.01070   C.upf
  H    1.00794   H.upf
ATOMIC_POSITIONS crystal
 Pb   0.0000000000000000  0.0000000000000000  0.0000000000000000
 Pb   0.5000000000000000  0.0000000000000000  0.0000000000000000
 Pb   0.0000000000000000  0.4999999999999999  0.0000000000000000
 Pb   0.5000000000000000  0.4999999999999999  0.0000000000000000
 Pb   0.0000000000000000  0.0000000000000000  0.5000000000000000
 Pb   0.5000000000000000  0.0000000000000000  0.5000000000000000
 Pb   0.0000000000000000  0.4999999999999999  0.5000000000000000
 Pb   0.5000000000000000  0.4999999999999999  0.5000000000000000
 Pb   0.0000000000000000  0.0000000000000000  0.2500000000000000
 Pb   0.5000000000000000  0.0000000000000000  0.2500000000000000
 Pb   0.0000000000000000  0.4999999999999999  0.2500000000000000
 Pb   0.5000000000000000  0.4999999999999999  0.2500000000000000
 Pb   0.0000000000000000  0.0000000000000000  0.7499999999999999
 Pb   0.5000000000000000  0.0000000000000000  0.7499999999999999
 Pb   0.0000000000000000  0.4999999999999999  0.7499999999999999
 Pb   0.5000000000000000  0.4999999999999999  0.7499999999999999
 Pb   0.2500000000000000  0.2499999999999999  0.0000000000000000
 Pb   0.7500000000000000  0.2499999999999999  0.0000000000000000
 Pb   0.2500000000000000  0.7499999999999999  0.0000000000000000
 Pb   0.7500000000000000  0.7499999999999999  0.0000000000000000
 Pb   0.2500000000000000  0.2499999999999999  0.5000000000000000
 Pb   0.7500000000000000  0.2499999999999999  0.5000000000000000
 Pb   0.2500000000000000  0.7499999999999999  0.5000000000000000
 Pb   0.7500000000000000  0.7499999999999999  0.5000000000000000
 Pb   0.2500000000000000  0.2499999999999999  0.2500000000000000
 Pb   0.7500000000000000  0.2499999999999999  0.2500000000000000
 Pb   0.2500000000000000  0.7499999999999999  0.2500000000000000
 Pb   0.7500000000000000  0.7499999999999999  0.2500000000000000
 Pb   0.2500000000000000  0.2499999999999999  0.7499999999999999
 Pb   0.7500000000000000  0.2499999999999999  0.7499999999999999
 Pb   0.2500000000000000  0.7499999999999999  0.7499999999999999
 Pb   0.7500000000000000  0.7499999999999999  0.7499999999999999
  I   0.1252250694000000  0.1252250694000000  0.0000000000000000
  I   0.6252250693999999  0.1252250693999999  0.0000000000000000
  I   0.1252250694000000  0.6252250693999999  0.0000000000000000
  I   0.6252250694000000  0.6252250693999999  0.0000000000000000
  I   0.1252250694000000  0.1252250694000000  0.5000000000000000
  I   0.6252250693999999  0.1252250693999999  0.5000000000000000
  I   0.1252250694000000  0.6252250693999999  0.5000000000000000
  I   0.6252250694000000  0.6252250693999999  0.5000000000000000
  I   0.1252250694000000  0.1252250694000000  0.2500000000000000
  I   0.6252250693999999  0.1252250693999999  0.2500000000000000
  I   0.1252250694000000  0.6252250693999999  0.2500000000000000
  I   0.6252250694000000  0.6252250693999999  0.2500000000000000
  I   0.1252250694000000  0.1252250694000000  0.7499999999999999
  I   0.6252250693999999  0.1252250693999999  0.7499999999999999
  I   0.1252250694000000  0.6252250693999999  0.7499999999999999
  I   0.6252250694000000  0.6252250693999999  0.7499999999999999
  I   0.3747749306000000  0.3747749305999999  0.2500000000000000
  I   0.8747749306000000  0.3747749305999999  0.2500000000000000
  I   0.3747749306000000  0.8747749305999999  0.2500000000000000
  I   0.8747749306000000  0.8747749305999998  0.2500000000000000
  I   0.3747749306000000  0.3747749305999999  0.7499999999999999
  I   0.8747749306000000  0.3747749305999999  0.7499999999999999
  I   0.3747749306000000  0.8747749305999999  0.7499999999999999
  I   0.8747749306000000  0.8747749305999998  0.7499999999999999
  I   0.3747749306000000  0.3747749305999999  0.0000000000000000
  I   0.8747749306000000  0.3747749305999999  0.0000000000000000
  I   0.3747749306000000  0.8747749305999999  0.0000000000000000
  I   0.8747749306000000  0.8747749305999998  0.0000000000000000
  I   0.3747749306000000  0.3747749305999999  0.5000000000000000
  I   0.8747749306000000  0.3747749305999999  0.5000000000000000
  I   0.3747749306000000  0.8747749305999999  0.5000000000000000
  I   0.8747749306000000  0.8747749305999998  0.5000000000000000
  I   0.0272671257500000  0.4727328742499999  0.3749999999999999
  I   0.5272671257500000  0.4727328742499999  0.3749999999999999
  I   0.0272671257500001  0.9727328742499999  0.3749999999999999
  I   0.5272671257500000  0.9727328742499999  0.3749999999999999
  I   0.0272671257500000  0.4727328742499999  0.8750000000000000
  I   0.5272671257500000  0.4727328742499999  0.8750000000000000
  I   0.0272671257500001  0.9727328742499999  0.8750000000000000
  I   0.5272671257500000  0.9727328742499999  0.8750000000000000
  I   0.4727328742500000  0.0272671257500000  0.1250000000000000
  I   0.9727328742500000  0.0272671257499999  0.1250000000000000
  I   0.4727328742500000  0.5272671257499999  0.1250000000000000
  I   0.9727328742500000  0.5272671257499999  0.1250000000000000
  I   0.4727328742500000  0.0272671257500000  0.6250000000000000
  I   0.9727328742500000  0.0272671257499999  0.6250000000000000
  I   0.4727328742500000  0.5272671257499999  0.6250000000000000
  I   0.9727328742500000  0.5272671257499999  0.6250000000000000
  I   0.2158107347000000  0.2841892652999999  0.3749999999999999
  I   0.7158107347000000  0.2841892652999999  0.3749999999999999
  I   0.2158107347000000  0.7841892652999999  0.3749999999999999
  I   0.7158107347000000  0.7841892652999999  0.3749999999999999
  I   0.2158107347000000  0.2841892652999999  0.8750000000000000
  I   0.7158107347000000  0.2841892652999999  0.8750000000000000
  I   0.2158107347000000  0.7841892652999999  0.8750000000000000
  I   0.7158107347000000  0.7841892652999999  0.8750000000000000
  I   0.2841892653000000  0.2158107347000000  0.1250000000000000
  I   0.7841892653000000  0.2158107346999999  0.1250000000000000
  I   0.2841892653000000  0.7158107346999999  0.1250000000000000
  I   0.7841892653000000  0.7158107346999999  0.1250000000000000
  I   0.2841892653000000  0.2158107347000000  0.6250000000000000
  I   0.7841892653000000  0.2158107346999999  0.6250000000000000
  I   0.2841892653000000  0.7158107346999999  0.6250000000000000
  I   0.7841892653000000  0.7158107346999999  0.6250000000000000
  I   0.3751571289000000  0.1248428710999999  0.4629276047000001
  I   0.8751571289000000  0.1248428710999999  0.4629276047000001
  I   0.3751571289000000  0.6248428710999999  0.4629276047000001
  I   0.8751571289000000  0.6248428710999999  0.4629276047000001
  I   0.3751571289000000  0.1248428710999999  0.9629276046999999
  I   0.8751571289000000  0.1248428710999999  0.9629276046999999
  I   0.3751571289000000  0.6248428710999999  0.9629276046999999
  I   0.8751571289000000  0.6248428710999999  0.9629276046999999
  I   0.3751571289000000  0.1248428710999999  0.2870723953000000
  I   0.8751571289000000  0.1248428710999999  0.2870723953000000
  I   0.3751571289000000  0.6248428710999999  0.2870723953000000
  I   0.8751571289000000  0.6248428710999999  0.2870723953000000
  I   0.3751571289000000  0.1248428710999999  0.7870723953000002
  I   0.8751571289000000  0.1248428710999999  0.7870723953000002
  I   0.3751571289000000  0.6248428710999999  0.7870723953000002
  I   0.8751571289000000  0.6248428710999999  0.7870723953000002
  I   0.1248428711000000  0.3751571289000000  0.2129276047000000
  I   0.6248428711000000  0.3751571288999999  0.2129276047000000
  I   0.1248428711000000  0.8751571288999999  0.2129276047000000
  I   0.6248428711000000  0.8751571288999999  0.2129276047000000
  I   0.1248428711000000  0.3751571289000000  0.7129276046999998
  I   0.6248428711000000  0.3751571288999999  0.7129276046999998
  I   0.1248428711000000  0.8751571288999999  0.7129276046999998
  I   0.6248428711000000  0.8751571288999999  0.7129276046999998
  I   0.1248428711000000  0.3751571289000000  0.0370723953000000
  I   0.6248428711000000  0.3751571288999999  0.0370723953000000
  I   0.1248428711000000  0.8751571288999999  0.0370723953000000
  I   0.6248428711000000  0.8751571288999999  0.0370723953000000
  I   0.1248428711000000  0.3751571289000000  0.5370723952999999
  I   0.6248428711000000  0.3751571288999999  0.5370723952999999
  I   0.1248428711000000  0.8751571288999999  0.5370723952999999
  I   0.6248428711000000  0.8751571288999999  0.5370723952999999
  N   0.1838625286000000  0.0263048094500000  0.1250000000000000
  N   0.6838625286000000  0.0263048094499999  0.1250000000000000
  N   0.1838625286000000  0.5263048094499999  0.1250000000000000
  N   0.6838625286000000  0.5263048094499999  0.1250000000000000
  N   0.1838625286000000  0.0263048094500000  0.6250000000000000
  N   0.6838625286000000  0.0263048094499999  0.6250000000000000
  N   0.1838625286000000  0.5263048094499999  0.6250000000000000
  N   0.6838625286000000  0.5263048094499999  0.6250000000000000
  N   0.0263048094500000  0.1838625286000000  0.3749999999999999
  N   0.5263048094500000  0.1838625285999999  0.3749999999999999
  N   0.0263048094500000  0.6838625285999999  0.3749999999999999
  N   0.5263048094500000  0.6838625285999999  0.3749999999999999
  N   0.0263048094500000  0.1838625286000000  0.8750000000000000
  N   0.5263048094500000  0.1838625285999999  0.8750000000000000
  N   0.0263048094500000  0.6838625285999999  0.8750000000000000
  N   0.5263048094500000  0.6838625285999999  0.8750000000000000
  N   0.3161374714000000  0.4736951905500000  0.3749999999999999
  N   0.8161374714000000  0.4736951905499999  0.3749999999999999
  N   0.3161374714000000  0.9736951905499999  0.3749999999999999
  N   0.8161374713999999  0.9736951905499998  0.3749999999999999
  N   0.3161374714000000  0.4736951905500000  0.8750000000000000
  N   0.8161374714000000  0.4736951905499999  0.8750000000000000
  N   0.3161374714000000  0.9736951905499999  0.8750000000000000
  N   0.8161374713999999  0.9736951905499998  0.8750000000000000
  N   0.4736951905500000  0.3161374714000000  0.1250000000000000
  N   0.9736951905500000  0.3161374713999999  0.1250000000000000
  N   0.4736951905500000  0.8161374713999999  0.1250000000000000
  N   0.9736951905500000  0.8161374713999999  0.1250000000000000
  N   0.4736951905500000  0.3161374714000000  0.6250000000000000
  N   0.9736951905500000  0.3161374713999999  0.6250000000000000
  N   0.4736951905500000  0.8161374713999999  0.6250000000000000
  N   0.9736951905500000  0.8161374713999999  0.6250000000000000
  C   0.2644952093500000  0.4971828722999999  0.1250000000000000
  C   0.7644952093499999  0.4971828723000000  0.1250000000000000
  C   0.2644952093500000  0.9971828722999998  0.1250000000000000
  C   0.7644952093499999  0.9971828722999999  0.1250000000000000
  C   0.2644952093500000  0.4971828722999999  0.6250000000000000
  C   0.7644952093499999  0.4971828723000000  0.6250000000000000
  C   0.2644952093500000  0.9971828722999998  0.6250000000000000
  C   0.7644952093499999  0.9971828722999999  0.6250000000000000
  C   0.4971828723000000  0.2644952093500000  0.3749999999999999
  C   0.9971828723000000  0.2644952093499998  0.3749999999999999
  C   0.4971828723000000  0.7644952093499998  0.3749999999999999
  C   0.9971828723000000  0.7644952093499998  0.3749999999999999
  C   0.4971828723000000  0.2644952093500000  0.8750000000000000
  C   0.9971828723000000  0.2644952093499998  0.8750000000000000
  C   0.4971828723000000  0.7644952093499998  0.8750000000000000
  C   0.9971828723000000  0.7644952093499998  0.8750000000000000
  C   0.2355047906500000  0.0028171277000000  0.3749999999999999
  C   0.7355047906499999  0.0028171277000000  0.3749999999999999
  C   0.2355047906500000  0.5028171276999999  0.3749999999999999
  C   0.7355047906500000  0.5028171277000000  0.3749999999999999
  C   0.2355047906500000  0.0028171277000000  0.8750000000000000
  C   0.7355047906499999  0.0028171277000000  0.8750000000000000
  C   0.2355047906500000  0.5028171276999999  0.8750000000000000
  C   0.7355047906500000  0.5028171277000000  0.8750000000000000
  C   0.0028171277000000  0.2355047906500000  0.1250000000000000
  C   0.5028171277000000  0.2355047906499999  0.1250000000000000
  C   0.0028171277000000  0.7355047906499999  0.1250000000000000
  C   0.5028171277000000  0.7355047906499997  0.1250000000000000
  C   0.0028171277000000  0.2355047906500000  0.6250000000000000
  C   0.5028171277000000  0.2355047906499999  0.6250000000000000
  C   0.0028171277000000  0.7355047906499999  0.6250000000000000
  C   0.5028171277000000  0.7355047906499997  0.6250000000000000
  H   0.3292854204000000  0.4397618163463827  0.4098600543000000
  H   0.8292854204000000  0.4403666690999999  0.4098600543000000
  H   0.3292854203999999  0.9403666690999998  0.4098600543000000
  H   0.8292854204000000  0.9403666691000000  0.4098600543000000
  H   0.3292854204000000  0.4403666690999999  0.9098600543000001
  H   0.8292854204000000  0.4403666690999999  0.9098600543000001
  H   0.3292854203999999  0.9403666690999998  0.9098600543000001
  H   0.8292854204000000  0.9403666691000000  0.9098600543000001
  H   0.3292854204000000  0.4403666690999999  0.3401399457000000
  H   0.8292854204000000  0.4403666690999999  0.3401399457000000
  H   0.3292854203999999  0.9403666690999998  0.3401399457000000
  H   0.8292854204000000  0.9403666691000000  0.3401399457000000
  H   0.3292854204000000  0.4403666690999999  0.8401399457000001
  H   0.8292854204000000  0.4403666690999999  0.8401399457000001
  H   0.3292854203999999  0.9403666690999998  0.8401399457000001
  H   0.8292854204000000  0.9403666691000000  0.8401399457000001
  H   0.4403666691000000  0.3292854203999999  0.1598600543000000
  H   0.9403666690999999  0.3292854203999998  0.1598600543000000
  H   0.4403666691000001  0.8292854204000000  0.1598600543000000
  H   0.9403666691000000  0.8292854203999996  0.1598600543000000
  H   0.4403666691000000  0.3292854203999999  0.6598600542999999
  H   0.9403666690999999  0.3292854203999998  0.6598600542999999
  H   0.4403666691000001  0.8292854204000000  0.6598600542999999
  H   0.9403666691000000  0.8292854203999996  0.6598600542999999
  H   0.4403666691000000  0.3292854203999999  0.0901399457000000
  H   0.9403666690999999  0.3292854203999998  0.0901399457000000
  H   0.4403666691000001  0.8292854204000000  0.0901399457000000
  H   0.9403666691000000  0.8292854203999996  0.0901399457000000
  H   0.4403666691000000  0.3292854203999999  0.5901399457000001
  H   0.9403666690999999  0.3292854203999998  0.5901399457000001
  H   0.4403666691000001  0.8292854204000000  0.5901399457000001
  H   0.9403666691000000  0.8292854203999996  0.5901399457000001
  H   0.1707145796000000  0.0596333309000000  0.1598600543000000
  H   0.6707145796000000  0.0596333309000000  0.1598600543000000
  H   0.1707145796000000  0.5596333308999999  0.1598600543000000
  H   0.6707145795999999  0.5596333308999999  0.1598600543000000
  H   0.1707145796000000  0.0596333309000000  0.6598600542999999
  H   0.6707145796000000  0.0596333309000000  0.6598600542999999
  H   0.1707145796000000  0.5596333308999999  0.6598600542999999
  H   0.6707145795999999  0.5596333308999999  0.6598600542999999
  H   0.0596333309000000  0.1707145796000000  0.3401399457000000
  H   0.5596333309000000  0.1707145795999999  0.3401399457000000
  H   0.0596333309000000  0.6707145795999999  0.3401399457000000
  H   0.5596333309000000  0.6707145795999998  0.3401399457000000
  H   0.0596333309000000  0.1707145796000000  0.8401399457000001
  H   0.5596333309000000  0.1707145795999999  0.8401399457000001
  H   0.0596333309000000  0.6707145795999999  0.8401399457000001
  H   0.5596333309000000  0.6707145795999998  0.8401399457000001
  H   0.1707145796000000  0.0596333309000000  0.0901399457000000
  H   0.6707145796000000  0.0596333309000000  0.0901399457000000
  H   0.1707145796000000  0.5596333308999999  0.0901399457000000
  H   0.6707145795999999  0.5596333308999999  0.0901399457000000
  H   0.1707145796000000  0.0596333309000000  0.5901399457000001
  H   0.6707145796000000  0.0596333309000000  0.5901399457000001
  H   0.1707145796000000  0.5596333308999999  0.5901399457000001
  H   0.6707145795999999  0.5596333308999999  0.5901399457000001
  H   0.0596333309000000  0.1707145796000000  0.4098600543000000
  H   0.5596333309000000  0.1707145795999999  0.4098600543000000
  H   0.0596333309000000  0.6707145795999999  0.4098600543000000
  H   0.5596333309000000  0.6707145795999998  0.4098600543000000
  H   0.0596333309000000  0.1707145796000000  0.9098600543000001
  H   0.5596333309000000  0.1707145795999999  0.9098600543000001
  H   0.0596333309000000  0.6707145795999999  0.9098600543000001
  H   0.5596333309000000  0.6707145795999998  0.9098600543000001
  H   0.2750620918000000  0.4621593442999999  0.1621759593500000
  H   0.7750620917999999  0.4621593442999998  0.1621759593500000
  H   0.2750620918000000  0.9621593442999999  0.1621759593500000
  H   0.7750620918000000  0.9621593442999999  0.1621759593500000
  H   0.2750620918000000  0.4621593442999999  0.6621759593500001
  H   0.7750620917999999  0.4621593442999998  0.6621759593500001
  H   0.2750620918000000  0.9621593442999999  0.6621759593500001
  H   0.7750620918000000  0.9621593442999999  0.6621759593500001
  H   0.2750620918000000  0.4621593442999999  0.0878240406500000
  H   0.7750620917999999  0.4621593442999998  0.0878240406500000
  H   0.2750620918000000  0.9621593442999999  0.0878240406500000
  H   0.7750620918000000  0.9621593442999999  0.0878240406500000
  H   0.2750620918000000  0.4621593442999999  0.5878240406500000
  H   0.7750620917999999  0.4621593442999998  0.5878240406500000
  H   0.2750620918000000  0.9621593442999999  0.5878240406500000
  H   0.7750620918000000  0.9621593442999999  0.5878240406500000
  H   0.4621593443000000  0.2750620918000000  0.4121759593500000
  H   0.9621593442999999  0.2750620917999999  0.4121759593500000
  H   0.4621593443000001  0.7750620917999999  0.4121759593500000
  H   0.9621593443000001  0.7750620917999999  0.4121759593500000
  H   0.4621593443000000  0.2750620918000000  0.9121759593500001
  H   0.9621593442999999  0.2750620917999999  0.9121759593500001
  H   0.4621593443000001  0.7750620917999999  0.9121759593500001
  H   0.9621593443000001  0.7750620917999999  0.9121759593500001
  H   0.4621593443000000  0.2750620918000000  0.3378240406500000
  H   0.9621593442999999  0.2750620917999999  0.3378240406500000
  H   0.4621593443000001  0.7750620917999999  0.3378240406500000
  H   0.9621593443000001  0.7750620917999999  0.3378240406500000
  H   0.4621593443000000  0.2750620918000000  0.8378240406499999
  H   0.9621593442999999  0.2750620917999999  0.8378240406499999
  H   0.4621593443000001  0.7750620917999999  0.8378240406499999
  H   0.9621593443000001  0.7750620917999999  0.8378240406499999
  H   0.2249379082000000  0.0378406557000000  0.4121759593500000
  H   0.7249379081999999  0.0378406556999999  0.4121759593500000
  H   0.2249379082000000  0.5378406556999999  0.4121759593500000
  H   0.7249379082000000  0.5378406556999998  0.4121759593500000
  H   0.2249379082000000  0.0378406557000000  0.9121759593500001
  H   0.7249379081999999  0.0378406556999999  0.9121759593500001
  H   0.2249379082000000  0.5378406556999999  0.9121759593500001
  H   0.7249379082000000  0.5378406556999998  0.9121759593500001
  H   0.0378406557000000  0.2249379082000000  0.0878240406500000
  H   0.5378406556999998  0.2249379081999999  0.0878240406500000
  H   0.0378406557000000  0.7249379081999999  0.0878240406500000
  H   0.5378406556999999  0.7249379081999999  0.0878240406500000
  H   0.0378406557000000  0.2249379082000000  0.5878240406500000
  H   0.5378406556999998  0.2249379081999999  0.5878240406500000
  H   0.0378406557000000  0.7249379081999999  0.5878240406500000
  H   0.5378406556999999  0.7249379081999999  0.5878240406500000
  H   0.2249379082000000  0.0378406557000000  0.3378240406500000
  H   0.7249379081999999  0.0378406556999999  0.3378240406500000
  H   0.2249379082000000  0.5378406556999999  0.3378240406500000
  H   0.7249379082000000  0.5378406556999998  0.3378240406500000
  H   0.2249379082000000  0.0378406557000000  0.8378240406499999
  H   0.7249379081999999  0.0378406556999999  0.8378240406499999
  H   0.2249379082000000  0.5378406556999999  0.8378240406499999
  H   0.7249379082000000  0.5378406556999998  0.8378240406499999
  H   0.0378406557000000  0.2249379082000000  0.1621759593500000
  H   0.5378406556999998  0.2249379081999999  0.1621759593500000
  H   0.0378406557000000  0.7249379081999999  0.1621759593500000
  H   0.5378406556999999  0.7249379081999999  0.1621759593500000
  H   0.0378406557000000  0.2249379082000000  0.6621759593500001
  H   0.5378406556999998  0.2249379081999999  0.6621759593500001
  H   0.0378406557000000  0.7249379081999999  0.6621759593500001
  H   0.5378406556999999  0.7249379081999999  0.6621759593500001
  H   0.3014601036000000  0.0460201408500000  0.1250000000000000
  H   0.8014601036000000  0.0460201408499999  0.1250000000000000
  H   0.3014601036000000  0.5460201408499999  0.1250000000000000
  H   0.8014601036000000  0.5460201408499999  0.1250000000000000
  H   0.3014601036000000  0.0460201408500000  0.6250000000000000
  H   0.8014601036000000  0.0460201408499999  0.6250000000000000
  H   0.3014601036000000  0.5460201408499999  0.6250000000000000
  H   0.8014601036000000  0.5460201408499999  0.6250000000000000
  H   0.0460201408500000  0.3014601035999999  0.3749999999999999
  H   0.5460201408500001  0.3014601035999999  0.3749999999999999
  H   0.0460201408500000  0.8014601035999999  0.3749999999999999
  H   0.5460201408500001  0.8014601035999999  0.3749999999999999
  H   0.0460201408500000  0.3014601035999999  0.8750000000000000
  H   0.5460201408500001  0.3014601035999999  0.8750000000000000
  H   0.0460201408500000  0.8014601035999999  0.8750000000000000
  H   0.5460201408500001  0.8014601035999999  0.8750000000000000
  H   0.1985398964000000  0.4539798591499999  0.3749999999999999
  H   0.6985398964000000  0.4539798591499998  0.3749999999999999
  H   0.1985398964000001  0.9539798591499998  0.3749999999999999
  H   0.6985398963999999  0.9539798591499997  0.3749999999999999
  H   0.1985398964000000  0.4539798591499999  0.8750000000000000
  H   0.6985398964000000  0.4539798591499998  0.8750000000000000
  H   0.1985398964000001  0.9539798591499998  0.8750000000000000
  H   0.6985398963999999  0.9539798591499997  0.8750000000000000
  H   0.4539798591499999  0.1985398963999999  0.1250000000000000
  H   0.9539798591499999  0.1985398963999999  0.1250000000000000
  H   0.4539798591499999  0.6985398964000000  0.1250000000000000
  H   0.9539798591499998  0.6985398963999998  0.1250000000000000
  H   0.4539798591499999  0.1985398963999999  0.6250000000000000
  H   0.9539798591499999  0.1985398963999999  0.6250000000000000
  H   0.4539798591499999  0.6985398964000000  0.6250000000000000
  H   0.9539798591499998  0.6985398963999998  0.6250000000000000
  H   0.0187014338500000  0.3528843944999999  0.1250000000000000
  H   0.5187014338500000  0.3528843944999999  0.1250000000000000
  H   0.0187014338500000  0.8528843945000000  0.1250000000000000
  H   0.5187014338500000  0.8528843944999999  0.1250000000000000
  H   0.0187014338500000  0.3528843944999999  0.6250000000000000
  H   0.5187014338500000  0.3528843944999999  0.6250000000000000
  H   0.0187014338500000  0.8528843945000000  0.6250000000000000
  H   0.5187014338500000  0.8528843944999999  0.6250000000000000
  H   0.3528843945000000  0.0187014338500000  0.3749999999999999
  H   0.8528843944999999  0.0187014338499999  0.3749999999999999
  H   0.3528843945000000  0.5187014338499999  0.3749999999999999
  H   0.8528843945000000  0.5187014338499999  0.3749999999999999
  H   0.3528843945000000  0.0187014338500000  0.8750000000000000
  H   0.8528843944999999  0.0187014338499999  0.8750000000000000
  H   0.3528843945000000  0.5187014338499999  0.8750000000000000
  H   0.8528843945000000  0.5187014338499999  0.8750000000000000
  H   0.4812985661500000  0.1471156055000000  0.3749999999999999
  H   0.9812985661500000  0.1471156054999999  0.3749999999999999
  H   0.4812985661500000  0.6471156054999999  0.3749999999999999
  H   0.9812985661500001  0.6471156055000000  0.3749999999999999
  H   0.4812985661500000  0.1471156055000000  0.8750000000000000
  H   0.9812985661500000  0.1471156054999999  0.8750000000000000
  H   0.4812985661500000  0.6471156054999999  0.8750000000000000
  H   0.9812985661500001  0.6471156055000000  0.8750000000000000
  H   0.1471156055000000  0.4812985661499999  0.1250000000000000
  H   0.6471156055000000  0.4812985661499999  0.1250000000000000
  H   0.1471156055000000  0.9812985661499999  0.1250000000000000
  H   0.6471156054999999  0.9812985661499998  0.1250000000000000
  H   0.1471156055000000  0.4812985661499999  0.6250000000000000
  H   0.6471156055000000  0.4812985661499999  0.6250000000000000
  H   0.1471156055000000  0.9812985661499999  0.6250000000000000
  H   0.6471156054999999  0.9812985661499998  0.6250000000000000