!    ibrav = 0, nat = 384, ntyp = 5
CELL_PARAMETERS bohr
   23.9701116169931261  -22.7769053885686183    0.0000000000000000
   23.9701116169931261   22.7769053885686183    0.0000000000000000
    0.0000000000000000    0.0000000000000000   45.7407622646984322
ATOMIC_SPECIES
 Pb  207.20000   Pb.upf
  I  126.90447   I.upf
  N   14.00670   N.upf
  C   12.01070   C.upf
  H    1.00794   H.upf
ATOMIC_POSITIONS crystal
 Pb   0.0000000000000000  0.0000000000000000  0.0000000000000000
 Pb   0.5000000000000000  0.0000000000000000  0.0000000000000000
 Pb   0.0000000000000000  0.5000000000000000  0.0000000000000000
 Pb   0.5000000000000000  0.5000000000000000  0.0000000000000000
 Pb   0.0000000000000000  0.0000000000000000  0.5000000000000000
 Pb   0.5000000000000000  0.0000000000000000  0.5000000000000000
 Pb   0.0000000000000000  0.5000000000000000  0.5000000000000000
 Pb   0.5000000000000000  0.5000000000000000  0.5000000000000000
 Pb   0.0000000000000000  0.0000000000000000  0.2500000000000000
 Pb   0.5000000000000000  0.0000000000000000  0.2500000000000000
 Pb   0.0000000000000000  0.5000000000000000  0.2500000000000000
 Pb   0.5000000000000000  0.5000000000000000  0.2500000000000000
 Pb   0.0000000000000000  0.0000000000000000  0.7500000000000000
 Pb   0.5000000000000000  0.0000000000000000  0.7500000000000000
 Pb   0.0000000000000000  0.5000000000000000  0.7500000000000000
 Pb   0.5000000000000000  0.5000000000000000  0.7500000000000000
 Pb   0.2500000000000000  0.2500000000000000  0.0000000000000000
 Pb   0.7500000000000000  0.2500000000000000  0.0000000000000000
 Pb   0.2500000000000000  0.7500000000000000  0.0000000000000000
 Pb   0.7500000000000000  0.7500000000000000  0.0000000000000000
 Pb   0.2500000000000000  0.2500000000000000  0.5000000000000000
 Pb   0.7500000000000000  0.2500000000000000  0.5000000000000000
 Pb   0.2500000000000000  0.7500000000000000  0.5000000000000000
 Pb   0.7500000000000000  0.7500000000000000  0.5000000000000000
 Pb   0.2500000000000000  0.2500000000000000  0.2500000000000000
 Pb   0.7500000000000000  0.2500000000000000  0.2500000000000000
 Pb   0.2500000000000000  0.7500000000000000  0.2500000000000000
 Pb   0.7500000000000000  0.7500000000000000  0.2500000000000000
 Pb   0.2500000000000000  0.2500000000000000  0.7500000000000000
 Pb   0.7500000000000000  0.2500000000000000  0.7500000000000000
 Pb   0.2500000000000000  0.7500000000000000  0.7500000000000000
 Pb   0.7500000000000000  0.7500000000000000  0.7500000000000000
  I   0.1252250694000000  0.1252250694000000  0.0000000000000000
  I   0.6252250694000000  0.1252250694000000  0.0000000000000000
  I   0.1252250694000000  0.6252250694000000  0.0000000000000000
  I   0.6252250694000000  0.6252250694000000  0.0000000000000000
  I   0.1252250694000000  0.1252250694000000  0.5000000000000000
  I   0.6252250694000000  0.1252250694000000  0.5000000000000000
  I   0.1252250694000000  0.6252250694000000  0.5000000000000000
  I   0.6252250694000000  0.6252250694000000  0.5000000000000000
  I   0.1252250694000000  0.1252250694000000  0.2500000000000000
  I   0.6252250694000000  0.1252250694000000  0.2500000000000000
  I   0.1252250694000000  0.6252250694000000  0.2500000000000000
  I   0.6252250694000000  0.6252250694000000  0.2500000000000000
  I   0.1252250694000000  0.1252250694000000  0.7500000000000000
  I   0.6252250694000000  0.1252250694000000  0.7500000000000000
  I   0.1252250694000000  0.6252250694000000  0.7500000000000000
  I   0.6252250694000000  0.6252250694000000  0.7500000000000000
  I   0.3747749306000000  0.3747749306000000  0.2500000000000000
  I   0.8747749306000000  0.3747749306000000  0.2500000000000000
  I   0.3747749306000000  0.8747749306000000  0.2500000000000000
  I   0.8747749306000000  0.8747749306000000  0.2500000000000000
  I   0.3747749306000000  0.3747749306000000  0.7500000000000000
  I   0.8747749306000000  0.3747749306000000  0.7500000000000000
  I   0.3747749306000000  0.8747749306000000  0.7500000000000000
  I   0.8747749306000000  0.8747749306000000  0.7500000000000000
  I   0.3747749306000000  0.3747749306000000  0.0000000000000000
  I   0.8747749306000000  0.3747749306000000  0.0000000000000000
  I   0.3747749306000000  0.8747749306000000  0.0000000000000000
  I   0.8747749306000000  0.8747749306000000  0.0000000000000000
  I   0.3747749306000000  0.3747749306000000  0.5000000000000000
  I   0.8747749306000000  0.3747749306000000  0.5000000000000000
  I   0.3747749306000000  0.8747749306000000  0.5000000000000000
  I   0.8747749306000000  0.8747749306000000  0.5000000000000000
  I   0.0272671257500000  0.4727328742500000  0.3750000000000000
  I   0.5272671257500000  0.4727328742500000  0.3750000000000000
  I   0.0272671257500000  0.9727328742500000  0.3750000000000000
  I   0.5272671257500000  0.9727328742500000  0.3750000000000000
  I   0.0272671257500000  0.4727328742500000  0.8750000000000000
  I   0.5272671257500000  0.4727328742500000  0.8750000000000000
  I   0.0272671257500000  0.9727328742500000  0.8750000000000000
  I   0.5272671257500000  0.9727328742500000  0.8750000000000000
  I   0.4727328742500000  0.0272671257500000  0.1250000000000000
  I   0.9727328742500000  0.0272671257500000  0.1250000000000000
  I   0.4727328742500000  0.5272671257500000  0.1250000000000000
  I   0.9727328742500000  0.5272671257500000  0.1250000000000000
  I   0.4727328742500000  0.0272671257500000  0.6250000000000000
  I   0.9727328742500000  0.0272671257500000  0.6250000000000000
  I   0.4727328742500000  0.5272671257500000  0.6250000000000000
  I   0.9727328742500000  0.5272671257500000  0.6250000000000000
  I   0.2158107347000000  0.2841892653000000  0.3750000000000000
  I   0.7158107347000000  0.2841892653000000  0.3750000000000000
  I   0.2158107347000000  0.7841892653000000  0.3750000000000000
  I   0.7158107347000000  0.7841892653000000  0.3750000000000000
  I   0.2158107347000000  0.2841892653000000  0.8750000000000000
  I   0.7158107347000000  0.2841892653000000  0.8750000000000000
  I   0.2158107347000000  0.7841892653000000  0.8750000000000000
  I   0.7158107347000000  0.7841892653000000  0.8750000000000000
  I   0.2841892653000000  0.2158107347000000  0.1250000000000000
  I   0.7841892653000000  0.2158107347000000  0.1250000000000000
  I   0.2841892653000000  0.7158107347000000  0.1250000000000000
  I   0.7841892653000000  0.7158107347000000  0.1250000000000000
  I   0.2841892653000000  0.2158107347000000  0.6250000000000000
  I   0.7841892653000000  0.2158107347000000  0.6250000000000000
  I   0.2841892653000000  0.7158107347000000  0.6250000000000000
  I   0.7841892653000000  0.7158107347000000  0.6250000000000000
  I   0.3751571289000000  0.1248428711000000  0.4629276047000000
  I   0.8751571289000000  0.1248428711000000  0.4629276047000000
  I   0.3751571289000000  0.6248428711000000  0.4629276047000000
  I   0.8751571289000000  0.6248428711000000  0.4629276047000000
  I   0.3751571289000000  0.1248428711000000  0.9629276046999999
  I   0.8751571289000000  0.1248428711000000  0.9629276046999999
  I   0.3751571289000000  0.6248428711000000  0.9629276046999999
  I   0.8751571289000000  0.6248428711000000  0.9629276046999999
  I   0.3751571289000000  0.1248428711000000  0.2870723953000000
  I   0.8751571289000000  0.1248428711000000  0.2870723953000000
  I   0.3751571289000000  0.6248428711000000  0.2870723953000000
  I   0.8751571289000000  0.6248428711000000  0.2870723953000000
  I   0.3751571289000000  0.1248428711000000  0.7870723953000001
  I   0.8751571289000000  0.1248428711000000  0.7870723953000001
  I   0.3751571289000000  0.6248428711000000  0.7870723953000001
  I   0.8751571289000000  0.6248428711000000  0.7870723953000001
  I   0.1248428711000000  0.3751571289000000  0.2129276047000000
  I   0.6248428711000000  0.3751571289000000  0.2129276047000000
  I   0.1248428711000000  0.8751571289000000  0.2129276047000000
  I   0.6248428711000000  0.8751571289000000  0.2129276047000000
  I   0.1248428711000000  0.3751571289000000  0.7129276046999999
  I   0.6248428711000000  0.3751571289000000  0.7129276046999999
  I   0.1248428711000000  0.8751571289000000  0.7129276046999999
  I   0.6248428711000000  0.8751571289000000  0.7129276046999999
  I   0.1248428711000000  0.3751571289000000  0.0370723953000000
  I   0.6248428711000000  0.3751571289000000  0.0370723953000000
  I   0.1248428711000000  0.8751571289000000  0.0370723953000000
  I   0.6248428711000000  0.8751571289000000  0.0370723953000000
  I   0.1248428711000000  0.3751571289000000  0.5370723952999999
  I   0.6248428711000000  0.3751571289000000  0.5370723952999999
  I   0.1248428711000000  0.8751571289000000  0.5370723952999999
  I   0.6248428711000000  0.8751571289000000  0.5370723952999999
  N   0.1838625286000000  0.0263048094500000  0.1250000000000000
  N   0.6838625286000000  0.0263048094500000  0.1250000000000000
  N   0.1838625286000000  0.5263048094500000  0.1250000000000000
  N   0.6838625286000000  0.5263048094500000  0.1250000000000000
  N   0.1838625286000000  0.0263048094500000  0.6250000000000000
  N   0.6838625286000000  0.0263048094500000  0.6250000000000000
  N   0.1838625286000000  0.5263048094500000  0.6250000000000000
  N   0.6838625286000000  0.5263048094500000  0.6250000000000000
  N   0.0263048094500000  0.1838625286000000  0.3750000000000000
  N   0.5263048094500000  0.1838625286000000  0.3750000000000000
  N   0.0263048094500000  0.6838625286000000  0.3750000000000000
  N   0.5263048094500000  0.6838625286000000  0.3750000000000000
  N   0.0263048094500000  0.1838625286000000  0.8750000000000000
  N   0.5263048094500000  0.1838625286000000  0.8750000000000000
  N   0.0263048094500000  0.6838625286000000  0.8750000000000000
  N   0.5263048094500000  0.6838625286000000  0.8750000000000000
  N   0.3161374714000000  0.4736951905500000  0.3750000000000000
  N   0.8161374714000000  0.4736951905500000  0.3750000000000000
  N   0.3161374714000000  0.9736951905500000  0.3750000000000000
  N   0.8161374714000000  0.9736951905500000  0.3750000000000000
  N   0.3161374714000000  0.4736951905500000  0.8750000000000000
  N   0.8161374714000000  0.4736951905500000  0.8750000000000000
  N   0.3161374714000000  0.9736951905500000  0.8750000000000000
  N   0.8161374714000000  0.9736951905500000  0.8750000000000000
  N   0.4736951905500000  0.3161374714000000  0.1250000000000000
  N   0.9736951905500000  0.3161374714000000  0.1250000000000000
  N   0.4736951905500000  0.8161374714000000  0.1250000000000000
  N   0.9736951905500000  0.8161374714000000  0.1250000000000000
  N   0.4736951905500000  0.3161374714000000  0.6250000000000000
  N   0.9736951905500000  0.3161374714000000  0.6250000000000000
  N   0.4736951905500000  0.8161374714000000  0.6250000000000000
  N   0.9736951905500000  0.8161374714000000  0.6250000000000000
  C   0.2644952093500000  0.4971828723000000  0.1250000000000000
  C   0.7644952093499999  0.4971828723000000  0.1250000000000000
  C   0.2644952093500000  0.9971828723000000  0.1250000000000000
  C   0.7644952093499999  0.9971828723000000  0.1250000000000000
  C   0.2644952093500000  0.4971828723000000  0.6250000000000000
  C   0.7644952093499999  0.4971828723000000  0.6250000000000000
  C   0.2644952093500000  0.9971828723000000  0.6250000000000000
  C   0.7644952093499999  0.9971828723000000  0.6250000000000000
  C   0.4971828723000000  0.2644952093500000  0.3750000000000000
  C   0.9971828723000000  0.2644952093500000  0.3750000000000000
  C   0.4971828723000000  0.7644952093499999  0.3750000000000000
  C   0.9971828723000000  0.7644952093499999  0.3750000000000000
  C   0.4971828723000000  0.2644952093500000  0.8750000000000000
  C   0.9971828723000000  0.2644952093500000  0.8750000000000000
  C   0.4971828723000000  0.7644952093499999  0.8750000000000000
  C   0.9971828723000000  0.7644952093499999  0.8750000000000000
  C   0.2355047906500000  0.0028171277000000  0.3750000000000000
  C   0.7355047906500000  0.0028171277000000  0.3750000000000000
  C   0.2355047906500000  0.5028171277000000  0.3750000000000000
  C   0.7355047906500000  0.5028171277000000  0.3750000000000000
  C   0.2355047906500000  0.0028171277000000  0.8750000000000000
  C   0.7355047906500000  0.0028171277000000  0.8750000000000000
  C   0.2355047906500000  0.5028171277000000  0.8750000000000000
  C   0.7355047906500000  0.5028171277000000  0.8750000000000000
  C   0.0028171277000000  0.2355047906500000  0.1250000000000000
  C   0.5028171277000000  0.2355047906500000  0.1250000000000000
  C   0.0028171277000000  0.7355047906500000  0.1250000000000000
  C   0.5028171277000000  0.7355047906500000  0.1250000000000000
  C   0.0028171277000000  0.2355047906500000  0.6250000000000000
  C   0.5028171277000000  0.2355047906500000  0.6250000000000000
  C   0.0028171277000000  0.7355047906500000  0.6250000000000000
  C   0.5028171277000000  0.7355047906500000  0.6250000000000000
  H   0.3292854204000000  0.4403666691000000  0.4098600543000000
  H   0.8292854204000000  0.4403666691000000  0.4098600543000000
  H   0.3292854204000000  0.9403666691000000  0.4098600543000000
  H   0.8292854204000000  0.9403666691000000  0.4098600543000000
  H   0.3292854204000000  0.4403666691000000  0.9098600542999999
  H   0.8292854204000000  0.4403666691000000  0.9098600542999999
  H   0.3292854204000000  0.9403666691000000  0.9098600542999999
  H   0.8292854204000000  0.9403666691000000  0.9098600542999999
  H   0.3292854204000000  0.4403666691000000  0.3401399457000000
  H   0.8292854204000000  0.4403666691000000  0.3401399457000000
  H   0.3292854204000000  0.9403666691000000  0.3401399457000000
  H   0.8292854204000000  0.9403666691000000  0.3401399457000000
  H   0.3292854204000000  0.4403666691000000  0.8401399457000001
  H   0.8292854204000000  0.4403666691000000  0.8401399457000001
  H   0.3292854204000000  0.9403666691000000  0.8401399457000001
  H   0.8292854204000000  0.9403666691000000  0.8401399457000001
  H   0.4403666691000000  0.3292854204000000  0.1598600543000000
  H   0.9403666691000000  0.3292854204000000  0.1598600543000000
  H   0.4403666691000000  0.8292854204000000  0.1598600543000000
  H   0.9403666691000000  0.8292854204000000  0.1598600543000000
  H   0.4403666691000000  0.3292854204000000  0.6598600542999999
  H   0.9403666691000000  0.3292854204000000  0.6598600542999999
  H   0.4403666691000000  0.8292854204000000  0.6598600542999999
  H   0.9403666691000000  0.8292854204000000  0.6598600542999999
  H   0.4403666691000000  0.3292854204000000  0.0901399457000000
  H   0.9403666691000000  0.3292854204000000  0.0901399457000000
  H   0.4403666691000000  0.8292854204000000  0.0901399457000000
  H   0.9403666691000000  0.8292854204000000  0.0901399457000000
  H   0.4403666691000000  0.3292854204000000  0.5901399457000001
  H   0.9403666691000000  0.3292854204000000  0.5901399457000001
  H   0.4403666691000000  0.8292854204000000  0.5901399457000001
  H   0.9403666691000000  0.8292854204000000  0.5901399457000001
  H   0.1707145796000000  0.0596333309000000  0.1598600543000000
  H   0.6707145796000000  0.0596333309000000  0.1598600543000000
  H   0.1707145796000000  0.5596333309000000  0.1598600543000000
  H   0.6707145796000000  0.5596333309000000  0.1598600543000000
  H   0.1707145796000000  0.0596333309000000  0.6598600542999999
  H   0.6707145796000000  0.0596333309000000  0.6598600542999999
  H   0.1707145796000000  0.5596333309000000  0.6598600542999999
  H   0.6707145796000000  0.5596333309000000  0.6598600542999999
  H   0.0596333309000000  0.1707145796000000  0.3401399457000000
  H   0.5596333309000000  0.1707145796000000  0.3401399457000000
  H   0.0596333309000000  0.6707145796000000  0.3401399457000000
  H   0.5596333309000000  0.6707145796000000  0.3401399457000000
  H   0.0596333309000000  0.1707145796000000  0.8401399457000001
  H   0.5596333309000000  0.1707145796000000  0.8401399457000001
  H   0.0596333309000000  0.6707145796000000  0.8401399457000001
  H   0.5596333309000000  0.6707145796000000  0.8401399457000001
  H   0.1707145796000000  0.0596333309000000  0.0901399457000000
  H   0.6707145796000000  0.0596333309000000  0.0901399457000000
  H   0.1707145796000000  0.5596333309000000  0.0901399457000000
  H   0.6707145796000000  0.5596333309000000  0.0901399457000000
  H   0.1707145796000000  0.0596333309000000  0.5901399457000001
  H   0.6707145796000000  0.0596333309000000  0.5901399457000001
  H   0.1707145796000000  0.5596333309000000  0.5901399457000001
  H   0.6707145796000000  0.5596333309000000  0.5901399457000001
  H   0.0596333309000000  0.1707145796000000  0.4098600543000000
  H   0.5596333309000000  0.1707145796000000  0.4098600543000000
  H   0.0596333309000000  0.6707145796000000  0.4098600543000000
  H   0.5596333309000000  0.6707145796000000  0.4098600543000000
  H   0.0596333309000000  0.1707145796000000  0.9098600542999999
  H   0.5596333309000000  0.1707145796000000  0.9098600542999999
  H   0.0596333309000000  0.6707145796000000  0.9098600542999999
  H   0.5596333309000000  0.6707145796000000  0.9098600542999999
  H   0.2750620918000000  0.4621593443000000  0.1621759593500000
  H   0.7750620918000000  0.4621593443000000  0.1621759593500000
  H   0.2750620918000000  0.9621593443000001  0.1621759593500000
  H   0.7750620918000000  0.9621593443000001  0.1621759593500000
  H   0.2750620918000000  0.4621593443000000  0.6621759593500001
  H   0.7750620918000000  0.4621593443000000  0.6621759593500001
  H   0.2750620918000000  0.9621593443000001  0.6621759593500001
  H   0.7750620918000000  0.9621593443000001  0.6621759593500001
  H   0.2750620918000000  0.4621593443000000  0.0878240406500000
  H   0.7750620918000000  0.4621593443000000  0.0878240406500000
  H   0.2750620918000000  0.9621593443000001  0.0878240406500000
  H   0.7750620918000000  0.9621593443000001  0.0878240406500000
  H   0.2750620918000000  0.4621593443000000  0.5878240406500000
  H   0.7750620918000000  0.4621593443000000  0.5878240406500000
  H   0.2750620918000000  0.9621593443000001  0.5878240406500000
  H   0.7750620918000000  0.9621593443000001  0.5878240406500000
  H   0.4621593443000000  0.2750620918000000  0.4121759593500000
  H   0.9621593443000001  0.2750620918000000  0.4121759593500000
  H   0.4621593443000000  0.7750620918000000  0.4121759593500000
  H   0.9621593443000001  0.7750620918000000  0.4121759593500000
  H   0.4621593443000000  0.2750620918000000  0.9121759593500001
  H   0.9621593443000001  0.2750620918000000  0.9121759593500001
  H   0.4621593443000000  0.7750620918000000  0.9121759593500001
  H   0.9621593443000001  0.7750620918000000  0.9121759593500001
  H   0.4621593443000000  0.2750620918000000  0.3378240406500000
  H   0.9621593443000001  0.2750620918000000  0.3378240406500000
  H   0.4621593443000000  0.7750620918000000  0.3378240406500000
  H   0.9621593443000001  0.7750620918000000  0.3378240406500000
  H   0.4621593443000000  0.2750620918000000  0.8378240406499999
  H   0.9621593443000001  0.2750620918000000  0.8378240406499999
  H   0.4621593443000000  0.7750620918000000  0.8378240406499999
  H   0.9621593443000001  0.7750620918000000  0.8378240406499999
  H   0.2249379082000000  0.0378406557000000  0.4121759593500000
  H   0.7249379082000000  0.0378406557000000  0.4121759593500000
  H   0.2249379082000000  0.5378406556999999  0.4121759593500000
  H   0.7249379082000000  0.5378406556999999  0.4121759593500000
  H   0.2249379082000000  0.0378406557000000  0.9121759593500001
  H   0.7249379082000000  0.0378406557000000  0.9121759593500001
  H   0.2249379082000000  0.5378406556999999  0.9121759593500001
  H   0.7249379082000000  0.5378406556999999  0.9121759593500001
  H   0.0378406557000000  0.2249379082000000  0.0878240406500000
  H   0.5378406556999999  0.2249379082000000  0.0878240406500000
  H   0.0378406557000000  0.7249379082000000  0.0878240406500000
  H   0.5378406556999999  0.7249379082000000  0.0878240406500000
  H   0.0378406557000000  0.2249379082000000  0.5878240406500000
  H   0.5378406556999999  0.2249379082000000  0.5878240406500000
  H   0.0378406557000000  0.7249379082000000  0.5878240406500000
  H   0.5378406556999999  0.7249379082000000  0.5878240406500000
  H   0.2249379082000000  0.0378406557000000  0.3378240406500000
  H   0.7249379082000000  0.0378406557000000  0.3378240406500000
  H   0.2249379082000000  0.5378406556999999  0.3378240406500000
  H   0.7249379082000000  0.5378406556999999  0.3378240406500000
  H   0.2249379082000000  0.0378406557000000  0.8378240406499999
  H   0.7249379082000000  0.0378406557000000  0.8378240406499999
  H   0.2249379082000000  0.5378406556999999  0.8378240406499999
  H   0.7249379082000000  0.5378406556999999  0.8378240406499999
  H   0.0378406557000000  0.2249379082000000  0.1621759593500000
  H   0.5378406556999999  0.2249379082000000  0.1621759593500000
  H   0.0378406557000000  0.7249379082000000  0.1621759593500000
  H   0.5378406556999999  0.7249379082000000  0.1621759593500000
  H   0.0378406557000000  0.2249379082000000  0.6621759593500001
  H   0.5378406556999999  0.2249379082000000  0.6621759593500001
  H   0.0378406557000000  0.7249379082000000  0.6621759593500001
  H   0.5378406556999999  0.7249379082000000  0.6621759593500001
  H   0.3014601036000000  0.0460201408500000  0.1250000000000000
  H   0.8014601036000000  0.0460201408500000  0.1250000000000000
  H   0.3014601036000000  0.5460201408500001  0.1250000000000000
  H   0.8014601036000000  0.5460201408500001  0.1250000000000000
  H   0.3014601036000000  0.0460201408500000  0.6250000000000000
  H   0.8014601036000000  0.0460201408500000  0.6250000000000000
  H   0.3014601036000000  0.5460201408500001  0.6250000000000000
  H   0.8014601036000000  0.5460201408500001  0.6250000000000000
  H   0.0460201408500000  0.3014601036000000  0.3750000000000000
  H   0.5460201408500001  0.3014601036000000  0.3750000000000000
  H   0.0460201408500000  0.8014601036000000  0.3750000000000000
  H   0.5460201408500001  0.8014601036000000  0.3750000000000000
  H   0.0460201408500000  0.3014601036000000  0.8750000000000000
  H   0.5460201408500001  0.3014601036000000  0.8750000000000000
  H   0.0460201408500000  0.8014601036000000  0.8750000000000000
  H   0.5460201408500001  0.8014601036000000  0.8750000000000000
  H   0.1985398964000000  0.4539798591500000  0.3750000000000000
  H   0.6985398964000000  0.4539798591500000  0.3750000000000000
  H   0.1985398964000000  0.9539798591499999  0.3750000000000000
  H   0.6985398964000000  0.9539798591499999  0.3750000000000000
  H   0.1985398964000000  0.4539798591500000  0.8750000000000000
  H   0.6985398964000000  0.4539798591500000  0.8750000000000000
  H   0.1985398964000000  0.9539798591499999  0.8750000000000000
  H   0.6985398964000000  0.9539798591499999  0.8750000000000000
  H   0.4539798591500000  0.1985398964000000  0.1250000000000000
  H   0.9539798591499999  0.1985398964000000  0.1250000000000000
  H   0.4539798591500000  0.6985398964000000  0.1250000000000000
  H   0.9539798591499999  0.6985398964000000  0.1250000000000000
  H   0.4539798591500000  0.1985398964000000  0.6250000000000000
  H   0.9539798591499999  0.1985398964000000  0.6250000000000000
  H   0.4539798591500000  0.6985398964000000  0.6250000000000000
  H   0.9539798591499999  0.6985398964000000  0.6250000000000000
  H   0.0187014338500000  0.3528843945000000  0.1250000000000000
  H   0.5187014338500000  0.3528843945000000  0.1250000000000000
  H   0.0187014338500000  0.8528843945000000  0.1250000000000000
  H   0.5187014338500000  0.8528843945000000  0.1250000000000000
  H   0.0187014338500000  0.3528843945000000  0.6250000000000000
  H   0.5187014338500000  0.3528843945000000  0.6250000000000000
  H   0.0187014338500000  0.8528843945000000  0.6250000000000000
  H   0.5187014338500000  0.8528843945000000  0.6250000000000000
  H   0.3528843945000000  0.0187014338500000  0.3750000000000000
  H   0.8528843945000000  0.0187014338500000  0.3750000000000000
  H   0.3528843945000000  0.5187014338500000  0.3750000000000000
  H   0.8528843945000000  0.5187014338500000  0.3750000000000000
  H   0.3528843945000000  0.0187014338500000  0.8750000000000000
  H   0.8528843945000000  0.0187014338500000  0.8750000000000000
  H   0.3528843945000000  0.5187014338500000  0.8750000000000000
  H   0.8528843945000000  0.5187014338500000  0.8750000000000000
  H   0.4812985661500000  0.1471156055000000  0.3750000000000000
  H   0.9812985661500000  0.1471156055000000  0.3750000000000000
  H   0.4812985661500000  0.6471156055000000  0.3750000000000000
  H   0.9812985661500000  0.6471156055000000  0.3750000000000000
  H   0.4812985661500000  0.1471156055000000  0.8750000000000000
  H   0.9812985661500000  0.1471156055000000  0.8750000000000000
  H   0.4812985661500000  0.6471156055000000  0.8750000000000000
  H   0.9812985661500000  0.6471156055000000  0.8750000000000000
  H   0.1471156055000000  0.4812985661500000  0.1250000000000000
  H   0.6471156055000000  0.4812985661500000  0.1250000000000000
  H   0.1471156055000000  0.9812985661500000  0.1250000000000000
  H   0.6471156055000000  0.9812985661500000  0.1250000000000000
  H   0.1471156055000000  0.4812985661500000  0.6250000000000000
  H   0.6471156055000000  0.4812985661500000  0.6250000000000000
  H   0.1471156055000000  0.9812985661500000  0.6250000000000000
  H   0.6471156055000000  0.9812985661500000  0.6250000000000000